name="r09";
nr_vertices=129;
nr_edges=1027;
neighborhoods=[{1,2,3,4,5,6,7,8,18,42,49,56,63,84,106,115,123},{0,2,3,4,5,6,7,25,35,44,57,64,86,97,108},{0,1,3,4,5,6,7,10,19,26,45,50,65,74,87,124},{0,1,2,4,5,6,7,11,20,27,36,75,88,98,109},{0,1,2,3,5,6,7,12,21,29,37,52,59,77,89,100,111,126},{0,1,2,3,4,6,7,14,22,39,46,53,68,78,112},{0,1,2,3,4,5,7,32,41,47,55,71,83,95,113,122},{0,1,2,3,4,5,6,33,48,62,72,96,105,114},{0,9,10,11,12,13,14,15,16,17,18,42,49,56,63,84,106,115,123},{8,10,11,12,13,14,15,16,17,34,43,73,85,107},{2,8,9,11,12,13,14,15,16,17,19,26,45,50,65,74,87,124},{3,8,9,10,12,13,14,15,16,17,20,27,36,75,88,98,109},{4,8,9,10,11,13,14,15,16,17,21,29,37,52,59,77,89,100,111,126},{8,9,10,11,12,14,15,16,17,30,38,60,67,90,101,117,127},{5,8,9,10,11,12,13,15,16,17,22,39,46,53,68,78,112},{8,9,10,11,12,13,14,16,17,31,69,79,91,102,118},{8,9,10,11,12,13,14,15,17,23,70,80,92,103,119,128},{8,9,10,11,12,13,14,15,16,61,81,93,104,120},{0,8,19,20,21,22,23,24,42,49,56,63,84,106,115,123},{2,10,18,20,21,22,23,24,26,45,50,65,74,87,124},{3,11,18,19,21,22,23,24,27,36,75,88,98,109},{4,12,18,19,20,22,23,24,29,37,52,59,77,89,100,111,126},{5,14,18,19,20,21,23,24,39,46,53,68,78,112},{16,18,19,20,21,22,24,70,80,92,103,119,128},{18,19,20,21,22,23,40,54,82,94,121},{1,26,27,28,29,30,31,32,33,35,44,57,64,86,97,108},{2,10,19,25,27,28,29,30,31,32,33,45,50,65,74,87,124},{3,11,20,25,26,28,29,30,31,32,33,36,75,88,98,109},{25,26,27,29,30,31,32,33,51,58,66,76,99,110,116,125},{4,12,21,25,26,27,28,30,31,32,33,37,52,59,77,89,100,111,126},{13,25,26,27,28,29,31,32,33,38,60,67,90,101,117,127},{15,25,26,27,28,29,30,32,33,69,79,91,102,118},{6,25,26,27,28,29,30,31,33,41,47,55,71,83,95,113,122},{7,25,26,27,28,29,30,31,32,48,62,72,96,105,114},{9,35,36,37,38,39,40,41,43,73,85,107},{1,25,34,36,37,38,39,40,41,44,57,64,86,97,108},{3,11,20,27,34,35,37,38,39,40,41,75,88,98,109},{4,12,21,29,34,35,36,38,39,40,41,52,59,77,89,100,111,126},{13,30,34,35,36,37,39,40,41,60,67,90,101,117,127},{5,14,22,34,35,36,37,38,40,41,46,53,68,78,112},{24,34,35,36,37,38,39,41,54,82,94,121},{6,32,34,35,36,37,38,39,40,47,55,71,83,95,113,122},{0,8,18,43,44,45,46,47,48,49,56,63,84,106,115,123},{9,34,42,44,45,46,47,48,73,85,107},{1,25,35,42,43,45,46,47,48,57,64,86,97,108},{2,10,19,26,42,43,44,46,47,48,50,65,74,87,124},{5,14,22,39,42,43,44,45,47,48,53,68,78,112},{6,32,41,42,43,44,45,46,48,55,71,83,95,113,122},{7,33,42,43,44,45,46,47,62,72,96,105,114},{0,8,18,42,50,51,52,53,54,55,56,63,84,106,115,123},{2,10,19,26,45,49,51,52,53,54,55,65,74,87,124},{28,49,50,52,53,54,55,58,66,76,99,110,116,125},{4,12,21,29,37,49,50,51,53,54,55,59,77,89,100,111,126},{5,14,22,39,46,49,50,51,52,54,55,68,78,112},{24,40,49,50,51,52,53,55,82,94,121},{6,32,41,47,49,50,51,52,53,54,71,83,95,113,122},{0,8,18,42,49,57,58,59,60,61,62,63,84,106,115,123},{1,25,35,44,56,58,59,60,61,62,64,86,97,108},{28,51,56,57,59,60,61,62,66,76,99,110,116,125},{4,12,21,29,37,52,56,57,58,60,61,62,77,89,100,111,126},{13,30,38,56,57,58,59,61,62,67,90,101,117,127},{17,56,57,58,59,60,62,81,93,104,120},{7,33,48,56,57,58,59,60,61,72,96,105,114},{0,8,18,42,49,56,64,65,66,67,68,69,70,71,72,84,106,115,123},{1,25,35,44,57,63,65,66,67,68,69,70,71,72,86,97,108},{2,10,19,26,45,50,63,64,66,67,68,69,70,71,72,74,87,124},{28,51,58,63,64,65,67,68,69,70,71,72,76,99,110,116,125},{13,30,38,60,63,64,65,66,68,69,70,71,72,90,101,117,127},{5,14,22,39,46,53,63,64,65,66,67,69,70,71,72,78,112},{15,31,63,64,65,66,67,68,70,71,72,79,91,102,118},{16,23,63,64,65,66,67,68,69,71,72,80,92,103,119,128},{6,32,41,47,55,63,64,65,66,67,68,69,70,72,83,95,113,122},{7,33,48,62,63,64,65,66,67,68,69,70,71,96,105,114},{9,34,43,74,75,76,77,78,79,80,81,82,83,85,107},{2,10,19,26,45,50,65,73,75,76,77,78,79,80,81,82,83,87,124},{3,11,20,27,36,73,74,76,77,78,79,80,81,82,83,88,98,109},{28,51,58,66,73,74,75,77,78,79,80,81,82,83,99,110,116,125},{4,12,21,29,37,52,59,73,74,75,76,78,79,80,81,82,83,89,100,111,126},{5,14,22,39,46,53,68,73,74,75,76,77,79,80,81,82,83,112},{15,31,69,73,74,75,76,77,78,80,81,82,83,91,102,118},{16,23,70,73,74,75,76,77,78,79,81,82,83,92,103,119,128},{17,61,73,74,75,76,77,78,79,80,82,83,93,104,120},{24,40,54,73,74,75,76,77,78,79,80,81,83,94,121},{6,32,41,47,55,71,73,74,75,76,77,78,79,80,81,82,95,113,122},{0,8,18,42,49,56,63,85,86,87,88,89,90,91,92,93,94,95,96,106,115,123},{9,34,43,73,84,86,87,88,89,90,91,92,93,94,95,96,107},{1,25,35,44,57,64,84,85,87,88,89,90,91,92,93,94,95,96,97,108},{2,10,19,26,45,50,65,74,84,85,86,88,89,90,91,92,93,94,95,96,124},{3,11,20,27,36,75,84,85,86,87,89,90,91,92,93,94,95,96,98,109},{4,12,21,29,37,52,59,77,84,85,86,87,88,90,91,92,93,94,95,96,100,111,126},{13,30,38,60,67,84,85,86,87,88,89,91,92,93,94,95,96,101,117,127},{15,31,69,79,84,85,86,87,88,89,90,92,93,94,95,96,102,118},{16,23,70,80,84,85,86,87,88,89,90,91,93,94,95,96,103,119,128},{17,61,81,84,85,86,87,88,89,90,91,92,94,95,96,104,120},{24,40,54,82,84,85,86,87,88,89,90,91,92,93,95,96,121},{6,32,41,47,55,71,83,84,85,86,87,88,89,90,91,92,93,94,96,113,122},{7,33,48,62,72,84,85,86,87,88,89,90,91,92,93,94,95,105,114},{1,25,35,44,57,64,86,98,99,100,101,102,103,104,105,108},{3,11,20,27,36,75,88,97,99,100,101,102,103,104,105,109},{28,51,58,66,76,97,98,100,101,102,103,104,105,110,116,125},{4,12,21,29,37,52,59,77,89,97,98,99,101,102,103,104,105,111,126},{13,30,38,60,67,90,97,98,99,100,102,103,104,105,117,127},{15,31,69,79,91,97,98,99,100,101,103,104,105,118},{16,23,70,80,92,97,98,99,100,101,102,104,105,119,128},{17,61,81,93,97,98,99,100,101,102,103,105,120},{7,33,48,62,72,96,97,98,99,100,101,102,103,104,114},{0,8,18,42,49,56,63,84,107,108,109,110,111,112,113,114,115,123},{9,34,43,73,85,106,108,109,110,111,112,113,114},{1,25,35,44,57,64,86,97,106,107,109,110,111,112,113,114},{3,11,20,27,36,75,88,98,106,107,108,110,111,112,113,114},{28,51,58,66,76,99,106,107,108,109,111,112,113,114,116,125},{4,12,21,29,37,52,59,77,89,100,106,107,108,109,110,112,113,114,126},{5,14,22,39,46,53,68,78,106,107,108,109,110,111,113,114},{6,32,41,47,55,71,83,95,106,107,108,109,110,111,112,114,122},{7,33,48,62,72,96,105,106,107,108,109,110,111,112,113},{0,8,18,42,49,56,63,84,106,116,117,118,119,120,121,122,123},{28,51,58,66,76,99,110,115,117,118,119,120,121,122,125},{13,30,38,60,67,90,101,115,116,118,119,120,121,122,127},{15,31,69,79,91,102,115,116,117,119,120,121,122},{16,23,70,80,92,103,115,116,117,118,120,121,122,128},{17,61,81,93,104,115,116,117,118,119,121,122},{24,40,54,82,94,115,116,117,118,119,120,122},{6,32,41,47,55,71,83,95,113,115,116,117,118,119,120,121},{0,8,18,42,49,56,63,84,106,115,124,125,126,127,128},{2,10,19,26,45,50,65,74,87,123,125,126,127,128},{28,51,58,66,76,99,110,116,123,124,126,127,128},{4,12,21,29,37,52,59,77,89,100,111,123,124,125,127,128},{13,30,38,60,67,90,101,117,123,124,125,126,128},{16,23,70,80,92,103,119,123,124,125,126,127}];
weights=[465,478,653,362,354,690,674,419,393,512,397,236,335,462,565,618,443,675,364,701,562,245,218,580,645,687,640,599,300,394,376,517,378,475,510,251,694,542,691,324,660,633,261,600,449,376,238,404,487,459,649,463,247,688,546,622,268,538,594,474,506,305,657,261,516,454,640,424,603,697,407,459,250,312,631,233,418,551,220,433,688,697,263,451,437,574,636,313,609,672,470,439,213,493,697,240,283,313,293,510,594,611,700,598,452,621,348,610,615,634,412,340,640,683,427,429,413,681,341,396,407,564,611,514,634,551,201,381,218];
